\ENCODING=ISO-8859-1
\Problem name: ilog.cplex

Minimize
 obj1: 90876 x1 + 95379 x2 + 103411 x3 + 104555 x4 + 92270 x5 + 107049 x6
       + 95734 x7 + 105435 x8 + 102403 x9 + 109997 x10 + 107883 x11
       + 109938 x12 + 91237 x13 + 94757 x14 + 100897 x15 + 100309 x16
       + 103189 x17 + 95653 x18 + 108659 x19 + 96091 x20 + 94563 x21
       + 99255 x22 + 104030 x23 + 97123 x24 + 101680 x25 + 92641 x26
       + 105262 x27 + 98069 x28 + 107086 x29 + 109257 x30 + 96564 x31
       + 99149 x32 + 105587 x33 + 91584 x34 + 96376 x35 + 96983 x36
       + 101900 x37 + 91868 x38 + 92266 x39 + 109312 x40 + 97357 x41
       + 94856 x42 + 92292 x43 + 107859 x44 + 104336 x45 + 109770 x46
       + 99297 x47 + 104694 x48 + 104037 x49 + 102682 x50 + 105007 x51
       + 102665 x52 + 105292 x53 + 93484 x54 + 98998 x55 + 101438 x56
       + 100773 x57 + 91172 x58 + 106939 x59 + 102766 x60 + 95881 x61
       + 93881 x62 + 97147 x63 + 101238 x64 + 100358 x65 + 91460 x66
       + 106949 x67 + 100729 x68 + 104801 x69 + 98507 x70 + 90485 x71
       + 103592 x72 + 96778 x73 + 92420 x74 + 107469 x75 + 106257 x76
       + 108495 x77 + 102711 x78 + 97981 x79 + 90021 x80 + 99549 x81
       + 102348 x82 + 97919 x83 + 108682 x84 + 95630 x85 + 105056 x86
       + 99884 x87 + 93109 x88 + 92060 x89 + 101232 x90 + 95127 x91 + 96913 x92
       + 109625 x93 + 109571 x94 + 103541 x95 + 97114 x96 + 99441 x97
       + 101486 x98 + 90812 x99 + 99009 x100 + 95417 x101 + 107438 x102
       + 94597 x103 + 93705 x104 + 97056 x105 + 105319 x106 + 90493 x107
       + 92550 x108 + 103006 x109 + 103659 x110 + 93153 x111 + 98889 x112
       + 98062 x113 + 99689 x114 + 92231 x115 + 99062 x116 + 107212 x117
       + 97490 x118 + 102685 x119 + 101934 x120 + 106582 x121 + 91442 x122
       + 100357 x123 + 103562 x124 + 104885 x125 + 100033 x126 + 102796 x127
       + 100409 x128 + 109747 x129 + 108014 x130 + 95756 x131 + 106770 x132
       + 99224 x133 + 90375 x134 + 102016 x135 + 90346 x136 + 90441 x137
       + 97746 x138 + 101080 x139 + 98876 x140 + 94454 x141 + 99528 x142
       + 95851 x143 + 90228 x144 + 109289 x145 + 108471 x146 + 105489 x147
       + 98581 x148 + 91566 x149 + 108363 x150 + 95128 x151 + 106134 x152
       + 102908 x153 + 93310 x154 + 100869 x155 + 95415 x156 + 108336 x157
       + 97076 x158 + 100244 x159 + 108333 x160 + 92859 x161 + 91657 x162
       + 99064 x163 + 98047 x164 + 103732 x165 + 106621 x166 + 96106 x167
       + 91390 x168 + 105013 x169 + 95916 x170 + 90880 x171 + 108729 x172
       + 95364 x173 + 102580 x174 + 102446 x175 + 92014 x176 + 104115 x177
       + 104731 x178 + 107365 x179 + 91654 x180 + 107923 x181 + 92481 x182
       + 98486 x183 + 102291 x184 + 96763 x185 + 90138 x186 + 90513 x187
       + 92500 x188 + 105032 x189 + 108360 x190 + 93141 x191 + 104162 x192
       + 91254 x193 + 106911 x194 + 98063 x195 + 103454 x196 + 98135 x197
       + 90251 x198 + 102242 x199 + 107356 x200 + 107046 x201 + 103552 x202
       + 104131 x203 + 106575 x204 + 102735 x205 + 95288 x206 + 90875 x207
       + 99212 x208 + 93243 x209 + 105262 x210 + 100018 x211 + 109592 x212
       + 108008 x213 + 91379 x214 + 98222 x215 + 109249 x216 + 109267 x217
       + 105993 x218 + 100932 x219 + 98603 x220 + 107756 x221 + 96492 x222
       + 94093 x223 + 96160 x224 + 106573 x225 + 94213 x226 + 98420 x227
       + 98283 x228 + 94733 x229 + 106289 x230 + 105819 x231 + 95081 x232
       + 94454 x233 + 99581 x234 + 95350 x235 + 90326 x236 + 104387 x237
       + 101013 x238 + 99638 x239 + 106299 x240 + 94722 x241 + 94448 x242
       + 101667 x243 + 98071 x244 + 99563 x245 + 90657 x246 + 96633 x247
       + 95984 x248 + 96914 x249 + 103976 x250 + 106939 x251 + 99587 x252
       + 104513 x253 + 98486 x254 + 92469 x255 + 93643 x256 + 100414 x257
       + 94894 x258 + 92127 x259 + 108928 x260 + 93712 x261 + 99431 x262
       + 98478 x263 + 107096 x264 + 92698 x265 + 96552 x266 + 99816 x267
       + 90989 x268 + 109336 x269 + 105801 x270 + 96265 x271 + 109087 x272
       + 91359 x273 + 108627 x274 + 107731 x275 + 106770 x276 + 100132 x277
       + 101551 x278 + 106206 x279 + 104558 x280 + 99310 x281 + 94348 x282
       + 107620 x283 + 94418 x284 + 99799 x285 + 93196 x286 + 101708 x287
       + 101846 x288 + 97641 x289 + 105635 x290 + 102337 x291 + 103616 x292
       + 103179 x293 + 96700 x294 + 105218 x295 + 98920 x296 + 92234 x297
       + 93718 x298 + 105177 x299 + 105098 x300 + 108216 x301 + 95977 x302
       + 105569 x303 + 101547 x304 + 103479 x305 + 98517 x306 + 108122 x307
       + 96585 x308 + 90771 x309 + 90400 x310 + 108083 x311 + 98048 x312
       + 106613 x313 + 92356 x314 + 92807 x315 + 92493 x316 + 95353 x317
       + 95567 x318 + 106974 x319 + 109054 x320 + 109678 x321 + 96905 x322
       + 93656 x323 + 99429 x324 + 103300 x325 + 102048 x326 + 92324 x327
       + 95854 x328 + 97191 x329 + 96576 x330 + 107693 x331 + 93913 x332
       + 104765 x333 + 103799 x334 + 107754 x335 + 98448 x336 + 91160 x337
       + 97263 x338 + 109332 x339 + 102896 x340 + 97071 x341 + 95784 x342
       + 105155 x343 + 105062 x344 + 98567 x345 + 99327 x346 + 97696 x347
       + 95602 x348 + 100881 x349 + 105156 x350 + 95439 x351 + 101798 x352
       + 105101 x353 + 94883 x354 + 109838 x355 + 102814 x356 + 91220 x357
       + 97421 x358 + 109604 x359 + 98054 x360 + 97165 x361 + 94700 x362
       + 103323 x363 + 92847 x364 + 98753 x365 + 104884 x366 + 98689 x367
       + 99576 x368 + 109011 x369 + 106712 x370 + 109525 x371 + 94093 x372
       + 100651 x373 + 109403 x374 + 102807 x375 + 101689 x376 + 105487 x377
       + 92519 x378 + 96506 x379 + 102423 x380 + 94938 x381 + 106167 x382
       + 95847 x383 + 93145 x384 + 105292 x385 + 104720 x386 + 102911 x387
       + 106687 x388 + 91593 x389 + 95724 x390 + 92519 x391 + 107461 x392
       + 94805 x393 + 99734 x394 + 95940 x395 + 97109 x396 + 108343 x397
       + 96508 x398 + 93207 x399 + 93857 x400 + 94879 x401 + 104796 x402
       + 102338 x403 + 92985 x404 + 92238 x405 + 108728 x406 + 109725 x407
       + 97616 x408 + 109884 x409 + 105010 x410 + 103083 x411 + 106106 x412
       + 101670 x413 + 101836 x414 + 99504 x415 + 98197 x416 + 98546 x417
       + 103570 x418 + 91689 x419 + 102300 x420 + 96806 x421 + 94213 x422
       + 107814 x423 + 97200 x424 + 98702 x425 + 95239 x426 + 105782 x427
       + 96210 x428 + 91721 x429 + 104838 x430 + 107780 x431 + 105805 x432
       + 103500 x433 + 93291 x434 + 97046 x435 + 96292 x436 + 95597 x437
       + 97493 x438 + 100307 x439 + 98159 x440 + 101243 x441 + 106564 x442
       + 106576 x443 + 104502 x444 + 109721 x445 + 100046 x446 + 105811 x447
       + 97275 x448 + 93152 x449 + 90354 x450 + 91958 x451 + 98609 x452
       + 103089 x453 + 105989 x454 + 91188 x455 + 96468 x456 + 109974 x457
       + 106177 x458 + 102606 x459 + 94668 x460 + 106503 x461 + 101503 x462
       + 90584 x463 + 107020 x464 + 108540 x465 + 106995 x466 + 107992 x467
       + 108418 x468 + 98247 x469 + 109637 x470 + 97864 x471 + 90019 x472
       + 104022 x473 + 99448 x474 + 98428 x475 + 99338 x476 + 106386 x477
       + 97471 x478 + 107094 x479 + 97378 x480 + 101958 x481 + 97884 x482
       + 94757 x483 + 94000 x484 + 101290 x485 + 90832 x486 + 98239 x487
       + 97453 x488 + 90547 x489 + 97624 x490 + 95706 x491 + 94296 x492
       + 91914 x493 + 90539 x494 + 107605 x495 + 101935 x496 + 93073 x497
       + 105817 x498 + 103937 x499 + 101619 x500 + 434953 x501 + 435872 x502
       + 397527 x503 + 434391 x504 + 374344 x505 + 411320 x506 + 428847 x507
       + 372146 x508 + 397512 x509 + 401167 x510 + 384102 x511 + 392989 x512
       + 431581 x513 + 406167 x514 + 382795 x515 + 373302 x516 + 427145 x517
       + 386759 x518 + 419091 x519 + 377411 x520 + 400331 x521 + 369557 x522
       + 439870 x523 + 376939 x524 + 407418 x525 + 424240 x526 + 421973 x527
       + 411559 x528 + 379220 x529 + 415356 x530 + 392150 x531 + 421617 x532
       + 396912 x533 + 372345 x534 + 401416 x535 + 425676 x536 + 372899 x537
       + 367462 x538 + 381227 x539 + 386123 x540 + 369831 x541 + 425064 x542
       + 372081 x543 + 363540 x544 + 387761 x545 + 367082 x546 + 425875 x547
       + 365632 x548 + 413951 x549 + 475472 x550
Subject To
 c1:   x12 - x15 - x19 + x20 - x23 + x25 + x35 + x36  = 0
 c2:   x62 - x65 - x69 + x70 - x73 + x75 + x85 + x86  = 0
 c3:   x112 - x115 - x119 + x120 - x123 + x125 + x135 + x136  = 1
 c4:   x162 - x165 - x169 + x170 - x173 + x175 + x185 + x186  = 1
 c5:   x212 - x215 - x219 + x220 - x223 + x225 + x235 + x236  = 0
 c6:   x262 - x265 - x269 + x270 - x273 + x275 + x285 + x286  = 0
 c7:   x312 - x315 - x319 + x320 - x323 + x325 + x335 + x336  = -1
 c8:   x362 - x365 - x369 + x370 - x373 + x375 + x385 + x386  = 0
 c9:   x412 - x415 - x419 + x420 - x423 + x425 + x435 + x436  = 0
 c10:  x462 - x465 - x469 + x470 - x473 + x475 + x485 + x486  = 0
 c11:  - x4 - x12 - x13 + x14 + x15 - x24 + x28 + x32 + x34 - x41 + x47 - x49
       - x50  = 0
 c12:  - x54 - x62 - x63 + x64 + x65 - x74 + x78 + x82 + x84 - x91 + x97 - x99
       - x100  = 0
 c13:  - x104 - x112 - x113 + x114 + x115 - x124 + x128 + x132 + x134 - x141
       + x147 - x149 - x150  = 0
 c14:  - x154 - x162 - x163 + x164 + x165 - x174 + x178 + x182 + x184 - x191
       + x197 - x199 - x200  = 0
 c15:  - x204 - x212 - x213 + x214 + x215 - x224 + x228 + x232 + x234 - x241
       + x247 - x249 - x250  = 0
 c16:  - x254 - x262 - x263 + x264 + x265 - x274 + x278 + x282 + x284 - x291
       + x297 - x299 - x300  = 0
 c17:  - x304 - x312 - x313 + x314 + x315 - x324 + x328 + x332 + x334 - x341
       + x347 - x349 - x350  = 0
 c18:  - x354 - x362 - x363 + x364 + x365 - x374 + x378 + x382 + x384 - x391
       + x397 - x399 - x400  = 0
 c19:  - x404 - x412 - x413 + x414 + x415 - x424 + x428 + x432 + x434 - x441
       + x447 - x449 - x450  = 0
 c20:  - x454 - x462 - x463 + x464 + x465 - x474 + x478 + x482 + x484 - x491
       + x497 - x499 - x500  = 0
 c21:  - x2 + x16 + x17 + x19 - x21 - x38 + x40 + x44 - x45 + x48 + x49  = -1
 c22:  - x52 + x66 + x67 + x69 - x71 - x88 + x90 + x94 - x95 + x98 + x99  = -1
 c23:  - x102 + x116 + x117 + x119 - x121 - x138 + x140 + x144 - x145 + x148
       + x149  = 0
 c24:  - x152 + x166 + x167 + x169 - x171 - x188 + x190 + x194 - x195 + x198
       + x199  = 0
 c25:  - x202 + x216 + x217 + x219 - x221 - x238 + x240 + x244 - x245 + x248
       + x249  = 0
 c26:  - x252 + x266 + x267 + x269 - x271 - x288 + x290 + x294 - x295 + x298
       + x299  = 0
 c27:  - x302 + x316 + x317 + x319 - x321 - x338 + x340 + x344 - x345 + x348
       + x349  = 0
 c28:  - x352 + x366 + x367 + x369 - x371 - x388 + x390 + x394 - x395 + x398
       + x399  = 0
 c29:  - x402 + x416 + x417 + x419 - x421 - x438 + x440 + x444 - x445 + x448
       + x449  = 0
 c30:  - x452 + x466 + x467 + x469 - x471 - x488 + x490 + x494 - x495 + x498
       + x499  = 0
 c31:  - x7 - x10 - x16 - x22 + x30 - x36 + x37 + x46  = 1
 c32:  - x57 - x60 - x66 - x72 + x80 - x86 + x87 + x96  = 0
 c33:  - x107 - x110 - x116 - x122 + x130 - x136 + x137 + x146  = 0
 c34:  - x157 - x160 - x166 - x172 + x180 - x186 + x187 + x196  = 0
 c35:  - x207 - x210 - x216 - x222 + x230 - x236 + x237 + x246  = -1
 c36:  - x257 - x260 - x266 - x272 + x280 - x286 + x287 + x296  = 0
 c37:  - x307 - x310 - x316 - x322 + x330 - x336 + x337 + x346  = 0
 c38:  - x357 - x360 - x366 - x372 + x380 - x386 + x387 + x396  = -1
 c39:  - x407 - x410 - x416 - x422 + x430 - x436 + x437 + x446  = 0
 c40:  - x457 - x460 - x466 - x472 + x480 - x486 + x487 + x496  = 0
 c41:  x4 - x8 + x18 + x21 - x27 - x29 - x32 - x40 + x42  = 0
 c42:  x54 - x58 + x68 + x71 - x77 - x79 - x82 - x90 + x92  = 1
 c43:  x104 - x108 + x118 + x121 - x127 - x129 - x132 - x140 + x142  = 0
 c44:  x154 - x158 + x168 + x171 - x177 - x179 - x182 - x190 + x192  = 0
 c45:  x204 - x208 + x218 + x221 - x227 - x229 - x232 - x240 + x242  = 0
 c46:  x254 - x258 + x268 + x271 - x277 - x279 - x282 - x290 + x292  = 1
 c47:  x304 - x308 + x318 + x321 - x327 - x329 - x332 - x340 + x342  = 0
 c48:  x354 - x358 + x368 + x371 - x377 - x379 - x382 - x390 + x392  = 0
 c49:  x404 - x408 + x418 + x421 - x427 - x429 - x432 - x440 + x442  = 1
 c50:  x454 - x458 + x468 + x471 - x477 - x479 - x482 - x490 + x492  = 0
 c51:  x1 + x2 - x5 + x10 + x13 - x18 - x30 - x33 + x39 - x44 - x47  = 0
 c52:  x51 + x52 - x55 + x60 + x63 - x68 - x80 - x83 + x89 - x94 - x97  = 0
 c53:  x101 + x102 - x105 + x110 + x113 - x118 - x130 - x133 + x139 - x144
       - x147  = 0
 c54:  x151 + x152 - x155 + x160 + x163 - x168 - x180 - x183 + x189 - x194
       - x197  = -1
 c55:  x201 + x202 - x205 + x210 + x213 - x218 - x230 - x233 + x239 - x244
       - x247  = 0
 c56:  x251 + x252 - x255 + x260 + x263 - x268 - x280 - x283 + x289 - x294
       - x297  = 0
 c57:  x301 + x302 - x305 + x310 + x313 - x318 - x330 - x333 + x339 - x344
       - x347  = 1
 c58:  x351 + x352 - x355 + x360 + x363 - x368 - x380 - x383 + x389 - x394
       - x397  = 0
 c59:  x401 + x402 - x405 + x410 + x413 - x418 - x430 - x433 + x439 - x444
       - x447  = 0
 c60:  x451 + x452 - x455 + x460 + x463 - x468 - x480 - x483 + x489 - x494
       - x497  = -1
 c61:  x5 - x9 - x17 - x20 + x22 + x26 + x27 - x28 + x31 - x37 + x38 - x43
       + x50  = 0
 c62:  x55 - x59 - x67 - x70 + x72 + x76 + x77 - x78 + x81 - x87 + x88 - x93
       + x100  = 0
 c63:  x105 - x109 - x117 - x120 + x122 + x126 + x127 - x128 + x131 - x137
       + x138 - x143 + x150  = 0
 c64:  x155 - x159 - x167 - x170 + x172 + x176 + x177 - x178 + x181 - x187
       + x188 - x193 + x200  = 0
 c65:  x205 - x209 - x217 - x220 + x222 + x226 + x227 - x228 + x231 - x237
       + x238 - x243 + x250  = 0
 c66:  x255 - x259 - x267 - x270 + x272 + x276 + x277 - x278 + x281 - x287
       + x288 - x293 + x300  = 0
 c67:  x305 - x309 - x317 - x320 + x322 + x326 + x327 - x328 + x331 - x337
       + x338 - x343 + x350  = 0
 c68:  x355 - x359 - x367 - x370 + x372 + x376 + x377 - x378 + x381 - x387
       + x388 - x393 + x400  = 0
 c69:  x405 - x409 - x417 - x420 + x422 + x426 + x427 - x428 + x431 - x437
       + x438 - x443 + x450  = 0
 c70:  x455 - x459 - x467 - x470 + x472 + x476 + x477 - x478 + x481 - x487
       + x488 - x493 + x500  = 1
 c71:  x6 + x7 + x8 - x14 - x26 + x33 - x39 + x41 - x48  = 0
 c72:  x56 + x57 + x58 - x64 - x76 + x83 - x89 + x91 - x98  = 0
 c73:  x106 + x107 + x108 - x114 - x126 + x133 - x139 + x141 - x148  = -1
 c74:  x156 + x157 + x158 - x164 - x176 + x183 - x189 + x191 - x198  = 0
 c75:  x206 + x207 + x208 - x214 - x226 + x233 - x239 + x241 - x248  = 1
 c76:  x256 + x257 + x258 - x264 - x276 + x283 - x289 + x291 - x298  = 0
 c77:  x306 + x307 + x308 - x314 - x326 + x333 - x339 + x341 - x348  = 0
 c78:  x356 + x357 + x358 - x364 - x376 + x383 - x389 + x391 - x398  = 0
 c79:  x406 + x407 + x408 - x414 - x426 + x433 - x439 + x441 - x448  = -1
 c80:  x456 + x457 + x458 - x464 - x476 + x483 - x489 + x491 - x498  = 0
 c81:  - x3 - x6 + x9 + x11 + x29 - x31 - x35 - x42 + x45  = 0
 c82:  - x53 - x56 + x59 + x61 + x79 - x81 - x85 - x92 + x95  = 0
 c83:  - x103 - x106 + x109 + x111 + x129 - x131 - x135 - x142 + x145  = 0
 c84:  - x153 - x156 + x159 + x161 + x179 - x181 - x185 - x192 + x195  = 0
 c85:  - x203 - x206 + x209 + x211 + x229 - x231 - x235 - x242 + x245  = 0
 c86:  - x253 - x256 + x259 + x261 + x279 - x281 - x285 - x292 + x295  = -1
 c87:  - x303 - x306 + x309 + x311 + x329 - x331 - x335 - x342 + x345  = 0
 c88:  - x353 - x356 + x359 + x361 + x379 - x381 - x385 - x392 + x395  = 0
 c89:  - x403 - x406 + x409 + x411 + x429 - x431 - x435 - x442 + x445  = 0
 c90:  - x453 - x456 + x459 + x461 + x479 - x481 - x485 - x492 + x495  = 0
 c91:  - x1 + x3 - x11 + x23 + x24 - x25 - x34 + x43 - x46  = 0
 c92:  - x51 + x53 - x61 + x73 + x74 - x75 - x84 + x93 - x96  = 0
 c93:  - x101 + x103 - x111 + x123 + x124 - x125 - x134 + x143 - x146  = 0
 c94:  - x151 + x153 - x161 + x173 + x174 - x175 - x184 + x193 - x196  = 0
 c95:  - x201 + x203 - x211 + x223 + x224 - x225 - x234 + x243 - x246  = 0
 c96:  - x251 + x253 - x261 + x273 + x274 - x275 - x284 + x293 - x296  = 0
 c97:  - x301 + x303 - x311 + x323 + x324 - x325 - x334 + x343 - x346  = 0
 c98:  - x351 + x353 - x361 + x373 + x374 - x375 - x384 + x393 - x396  = 1
 c99:  - x401 + x403 - x411 + x423 + x424 - x425 - x434 + x443 - x446  = 0
 c100: - x451 + x453 - x461 + x473 + x474 - x475 - x484 + x493 - x496  = 0
 c101: 4 x1 + 4 x51 + 4 x101 + 4 x151 + 4 x201 + 4 x251 + 4 x301 + 4 x351
       + 4 x401 + 4 x451 - 5 x501 <= 0
 c102: 4 x2 + 4 x52 + 4 x102 + 4 x152 + 4 x202 + 4 x252 + 4 x302 + 4 x352
       + 4 x402 + 4 x452 - 5 x502 <= 0
 c103: 4 x3 + 4 x53 + 4 x103 + 4 x153 + 4 x203 + 4 x253 + 4 x303 + 4 x353
       + 4 x403 + 4 x453 - 5 x503 <= 0
 c104: 4 x4 + 4 x54 + 4 x104 + 4 x154 + 4 x204 + 4 x254 + 4 x304 + 4 x354
       + 4 x404 + 4 x454 - 5 x504 <= 0
 c105: 4 x5 + 4 x55 + 4 x105 + 4 x155 + 4 x205 + 4 x255 + 4 x305 + 4 x355
       + 4 x405 + 4 x455 - 5 x505 <= 0
 c106: 4 x6 + 4 x56 + 4 x106 + 4 x156 + 4 x206 + 4 x256 + 4 x306 + 4 x356
       + 4 x406 + 4 x456 - 5 x506 <= 0
 c107: 4 x7 + 4 x57 + 4 x107 + 4 x157 + 4 x207 + 4 x257 + 4 x307 + 4 x357
       + 4 x407 + 4 x457 - 5 x507 <= 0
 c108: 4 x8 + 4 x58 + 4 x108 + 4 x158 + 4 x208 + 4 x258 + 4 x308 + 4 x358
       + 4 x408 + 4 x458 - 5 x508 <= 0
 c109: 4 x9 + 4 x59 + 4 x109 + 4 x159 + 4 x209 + 4 x259 + 4 x309 + 4 x359
       + 4 x409 + 4 x459 - 5 x509 <= 0
 c110: 4 x10 + 4 x60 + 4 x110 + 4 x160 + 4 x210 + 4 x260 + 4 x310 + 4 x360
       + 4 x410 + 4 x460 - 5 x510 <= 0
 c111: 4 x11 + 4 x61 + 4 x111 + 4 x161 + 4 x211 + 4 x261 + 4 x311 + 4 x361
       + 4 x411 + 4 x461 - 5 x511 <= 0
 c112: 4 x12 + 4 x62 + 4 x112 + 4 x162 + 4 x212 + 4 x262 + 4 x312 + 4 x362
       + 4 x412 + 4 x462 - 5 x512 <= 0
 c113: 4 x13 + 4 x63 + 4 x113 + 4 x163 + 4 x213 + 4 x263 + 4 x313 + 4 x363
       + 4 x413 + 4 x463 - 5 x513 <= 0
 c114: 4 x14 + 4 x64 + 4 x114 + 4 x164 + 4 x214 + 4 x264 + 4 x314 + 4 x364
       + 4 x414 + 4 x464 - 5 x514 <= 0
 c115: 4 x15 + 4 x65 + 4 x115 + 4 x165 + 4 x215 + 4 x265 + 4 x315 + 4 x365
       + 4 x415 + 4 x465 - 5 x515 <= 0
 c116: 4 x16 + 4 x66 + 4 x116 + 4 x166 + 4 x216 + 4 x266 + 4 x316 + 4 x366
       + 4 x416 + 4 x466 - 5 x516 <= 0
 c117: 4 x17 + 4 x67 + 4 x117 + 4 x167 + 4 x217 + 4 x267 + 4 x317 + 4 x367
       + 4 x417 + 4 x467 - 5 x517 <= 0
 c118: 4 x18 + 4 x68 + 4 x118 + 4 x168 + 4 x218 + 4 x268 + 4 x318 + 4 x368
       + 4 x418 + 4 x468 - 5 x518 <= 0
 c119: 4 x19 + 4 x69 + 4 x119 + 4 x169 + 4 x219 + 4 x269 + 4 x319 + 4 x369
       + 4 x419 + 4 x469 - 5 x519 <= 0
 c120: 4 x20 + 4 x70 + 4 x120 + 4 x170 + 4 x220 + 4 x270 + 4 x320 + 4 x370
       + 4 x420 + 4 x470 - 5 x520 <= 0
 c121: 4 x21 + 4 x71 + 4 x121 + 4 x171 + 4 x221 + 4 x271 + 4 x321 + 4 x371
       + 4 x421 + 4 x471 - 5 x521 <= 0
 c122: 4 x22 + 4 x72 + 4 x122 + 4 x172 + 4 x222 + 4 x272 + 4 x322 + 4 x372
       + 4 x422 + 4 x472 - 5 x522 <= 0
 c123: 4 x23 + 4 x73 + 4 x123 + 4 x173 + 4 x223 + 4 x273 + 4 x323 + 4 x373
       + 4 x423 + 4 x473 - 5 x523 <= 0
 c124: 4 x24 + 4 x74 + 4 x124 + 4 x174 + 4 x224 + 4 x274 + 4 x324 + 4 x374
       + 4 x424 + 4 x474 - 5 x524 <= 0
 c125: 4 x25 + 4 x75 + 4 x125 + 4 x175 + 4 x225 + 4 x275 + 4 x325 + 4 x375
       + 4 x425 + 4 x475 - 5 x525 <= 0
 c126: 4 x26 + 4 x76 + 4 x126 + 4 x176 + 4 x226 + 4 x276 + 4 x326 + 4 x376
       + 4 x426 + 4 x476 - 5 x526 <= 0
 c127: 4 x27 + 4 x77 + 4 x127 + 4 x177 + 4 x227 + 4 x277 + 4 x327 + 4 x377
       + 4 x427 + 4 x477 - 5 x527 <= 0
 c128: 4 x28 + 4 x78 + 4 x128 + 4 x178 + 4 x228 + 4 x278 + 4 x328 + 4 x378
       + 4 x428 + 4 x478 - 5 x528 <= 0
 c129: 4 x29 + 4 x79 + 4 x129 + 4 x179 + 4 x229 + 4 x279 + 4 x329 + 4 x379
       + 4 x429 + 4 x479 - 5 x529 <= 0
 c130: 4 x30 + 4 x80 + 4 x130 + 4 x180 + 4 x230 + 4 x280 + 4 x330 + 4 x380
       + 4 x430 + 4 x480 - 5 x530 <= 0
 c131: 4 x31 + 4 x81 + 4 x131 + 4 x181 + 4 x231 + 4 x281 + 4 x331 + 4 x381
       + 4 x431 + 4 x481 - 5 x531 <= 0
 c132: 4 x32 + 4 x82 + 4 x132 + 4 x182 + 4 x232 + 4 x282 + 4 x332 + 4 x382
       + 4 x432 + 4 x482 - 5 x532 <= 0
 c133: 4 x33 + 4 x83 + 4 x133 + 4 x183 + 4 x233 + 4 x283 + 4 x333 + 4 x383
       + 4 x433 + 4 x483 - 5 x533 <= 0
 c134: 4 x34 + 4 x84 + 4 x134 + 4 x184 + 4 x234 + 4 x284 + 4 x334 + 4 x384
       + 4 x434 + 4 x484 - 5 x534 <= 0
 c135: 4 x35 + 4 x85 + 4 x135 + 4 x185 + 4 x235 + 4 x285 + 4 x335 + 4 x385
       + 4 x435 + 4 x485 - 5 x535 <= 0
 c136: 4 x36 + 4 x86 + 4 x136 + 4 x186 + 4 x236 + 4 x286 + 4 x336 + 4 x386
       + 4 x436 + 4 x486 - 5 x536 <= 0
 c137: 4 x37 + 4 x87 + 4 x137 + 4 x187 + 4 x237 + 4 x287 + 4 x337 + 4 x387
       + 4 x437 + 4 x487 - 5 x537 <= 0
 c138: 4 x38 + 4 x88 + 4 x138 + 4 x188 + 4 x238 + 4 x288 + 4 x338 + 4 x388
       + 4 x438 + 4 x488 - 5 x538 <= 0
 c139: 4 x39 + 4 x89 + 4 x139 + 4 x189 + 4 x239 + 4 x289 + 4 x339 + 4 x389
       + 4 x439 + 4 x489 - 5 x539 <= 0
 c140: 4 x40 + 4 x90 + 4 x140 + 4 x190 + 4 x240 + 4 x290 + 4 x340 + 4 x390
       + 4 x440 + 4 x490 - 5 x540 <= 0
 c141: 4 x41 + 4 x91 + 4 x141 + 4 x191 + 4 x241 + 4 x291 + 4 x341 + 4 x391
       + 4 x441 + 4 x491 - 5 x541 <= 0
 c142: 4 x42 + 4 x92 + 4 x142 + 4 x192 + 4 x242 + 4 x292 + 4 x342 + 4 x392
       + 4 x442 + 4 x492 - 5 x542 <= 0
 c143: 4 x43 + 4 x93 + 4 x143 + 4 x193 + 4 x243 + 4 x293 + 4 x343 + 4 x393
       + 4 x443 + 4 x493 - 5 x543 <= 0
 c144: 4 x44 + 4 x94 + 4 x144 + 4 x194 + 4 x244 + 4 x294 + 4 x344 + 4 x394
       + 4 x444 + 4 x494 - 5 x544 <= 0
 c145: 4 x45 + 4 x95 + 4 x145 + 4 x195 + 4 x245 + 4 x295 + 4 x345 + 4 x395
       + 4 x445 + 4 x495 - 5 x545 <= 0
 c146: 4 x46 + 4 x96 + 4 x146 + 4 x196 + 4 x246 + 4 x296 + 4 x346 + 4 x396
       + 4 x446 + 4 x496 - 5 x546 <= 0
 c147: 4 x47 + 4 x97 + 4 x147 + 4 x197 + 4 x247 + 4 x297 + 4 x347 + 4 x397
       + 4 x447 + 4 x497 - 5 x547 <= 0
 c148: 4 x48 + 4 x98 + 4 x148 + 4 x198 + 4 x248 + 4 x298 + 4 x348 + 4 x398
       + 4 x448 + 4 x498 - 5 x548 <= 0
 c149: 4 x49 + 4 x99 + 4 x149 + 4 x199 + 4 x249 + 4 x299 + 4 x349 + 4 x399
       + 4 x449 + 4 x499 - 5 x549 <= 0
 c150: 4 x50 + 4 x100 + 4 x150 + 4 x200 + 4 x250 + 4 x300 + 4 x350 + 4 x400
       + 4 x450 + 4 x500 - 5 x550 <= 0
Bounds
 0 <= x1 <= 1
 0 <= x2 <= 1
 0 <= x3 <= 1
 0 <= x4 <= 1
 0 <= x5 <= 1
 0 <= x6 <= 1
 0 <= x7 <= 1
 0 <= x8 <= 1
 0 <= x9 <= 1
 0 <= x10 <= 1
 0 <= x11 <= 1
 0 <= x12 <= 1
 0 <= x13 <= 1
 0 <= x14 <= 1
 0 <= x15 <= 1
 0 <= x16 <= 1
 0 <= x17 <= 1
 0 <= x18 <= 1
 0 <= x19 <= 1
 0 <= x20 <= 1
 0 <= x21 <= 1
 0 <= x22 <= 1
 0 <= x23 <= 1
 0 <= x24 <= 1
 0 <= x25 <= 1
 0 <= x26 <= 1
 0 <= x27 <= 1
 0 <= x28 <= 1
 0 <= x29 <= 1
 0 <= x30 <= 1
 0 <= x31 <= 1
 0 <= x32 <= 1
 0 <= x33 <= 1
 0 <= x34 <= 1
 0 <= x35 <= 1
 0 <= x36 <= 1
 0 <= x37 <= 1
 0 <= x38 <= 1
 0 <= x39 <= 1
 0 <= x40 <= 1
 0 <= x41 <= 1
 0 <= x42 <= 1
 0 <= x43 <= 1
 0 <= x44 <= 1
 0 <= x45 <= 1
 0 <= x46 <= 1
 0 <= x47 <= 1
 0 <= x48 <= 1
 0 <= x49 <= 1
 0 <= x50 <= 1
 0 <= x51 <= 1
 0 <= x52 <= 1
 0 <= x53 <= 1
 0 <= x54 <= 1
 0 <= x55 <= 1
 0 <= x56 <= 1
 0 <= x57 <= 1
 0 <= x58 <= 1
 0 <= x59 <= 1
 0 <= x60 <= 1
 0 <= x61 <= 1
 0 <= x62 <= 1
 0 <= x63 <= 1
 0 <= x64 <= 1
 0 <= x65 <= 1
 0 <= x66 <= 1
 0 <= x67 <= 1
 0 <= x68 <= 1
 0 <= x69 <= 1
 0 <= x70 <= 1
 0 <= x71 <= 1
 0 <= x72 <= 1
 0 <= x73 <= 1
 0 <= x74 <= 1
 0 <= x75 <= 1
 0 <= x76 <= 1
 0 <= x77 <= 1
 0 <= x78 <= 1
 0 <= x79 <= 1
 0 <= x80 <= 1
 0 <= x81 <= 1
 0 <= x82 <= 1
 0 <= x83 <= 1
 0 <= x84 <= 1
 0 <= x85 <= 1
 0 <= x86 <= 1
 0 <= x87 <= 1
 0 <= x88 <= 1
 0 <= x89 <= 1
 0 <= x90 <= 1
 0 <= x91 <= 1
 0 <= x92 <= 1
 0 <= x93 <= 1
 0 <= x94 <= 1
 0 <= x95 <= 1
 0 <= x96 <= 1
 0 <= x97 <= 1
 0 <= x98 <= 1
 0 <= x99 <= 1
 0 <= x100 <= 1
 0 <= x101 <= 1
 0 <= x102 <= 1
 0 <= x103 <= 1
 0 <= x104 <= 1
 0 <= x105 <= 1
 0 <= x106 <= 1
 0 <= x107 <= 1
 0 <= x108 <= 1
 0 <= x109 <= 1
 0 <= x110 <= 1
 0 <= x111 <= 1
 0 <= x112 <= 1
 0 <= x113 <= 1
 0 <= x114 <= 1
 0 <= x115 <= 1
 0 <= x116 <= 1
 0 <= x117 <= 1
 0 <= x118 <= 1
 0 <= x119 <= 1
 0 <= x120 <= 1
 0 <= x121 <= 1
 0 <= x122 <= 1
 0 <= x123 <= 1
 0 <= x124 <= 1
 0 <= x125 <= 1
 0 <= x126 <= 1
 0 <= x127 <= 1
 0 <= x128 <= 1
 0 <= x129 <= 1
 0 <= x130 <= 1
 0 <= x131 <= 1
 0 <= x132 <= 1
 0 <= x133 <= 1
 0 <= x134 <= 1
 0 <= x135 <= 1
 0 <= x136 <= 1
 0 <= x137 <= 1
 0 <= x138 <= 1
 0 <= x139 <= 1
 0 <= x140 <= 1
 0 <= x141 <= 1
 0 <= x142 <= 1
 0 <= x143 <= 1
 0 <= x144 <= 1
 0 <= x145 <= 1
 0 <= x146 <= 1
 0 <= x147 <= 1
 0 <= x148 <= 1
 0 <= x149 <= 1
 0 <= x150 <= 1
 0 <= x151 <= 1
 0 <= x152 <= 1
 0 <= x153 <= 1
 0 <= x154 <= 1
 0 <= x155 <= 1
 0 <= x156 <= 1
 0 <= x157 <= 1
 0 <= x158 <= 1
 0 <= x159 <= 1
 0 <= x160 <= 1
 0 <= x161 <= 1
 0 <= x162 <= 1
 0 <= x163 <= 1
 0 <= x164 <= 1
 0 <= x165 <= 1
 0 <= x166 <= 1
 0 <= x167 <= 1
 0 <= x168 <= 1
 0 <= x169 <= 1
 0 <= x170 <= 1
 0 <= x171 <= 1
 0 <= x172 <= 1
 0 <= x173 <= 1
 0 <= x174 <= 1
 0 <= x175 <= 1
 0 <= x176 <= 1
 0 <= x177 <= 1
 0 <= x178 <= 1
 0 <= x179 <= 1
 0 <= x180 <= 1
 0 <= x181 <= 1
 0 <= x182 <= 1
 0 <= x183 <= 1
 0 <= x184 <= 1
 0 <= x185 <= 1
 0 <= x186 <= 1
 0 <= x187 <= 1
 0 <= x188 <= 1
 0 <= x189 <= 1
 0 <= x190 <= 1
 0 <= x191 <= 1
 0 <= x192 <= 1
 0 <= x193 <= 1
 0 <= x194 <= 1
 0 <= x195 <= 1
 0 <= x196 <= 1
 0 <= x197 <= 1
 0 <= x198 <= 1
 0 <= x199 <= 1
 0 <= x200 <= 1
 0 <= x201 <= 1
 0 <= x202 <= 1
 0 <= x203 <= 1
 0 <= x204 <= 1
 0 <= x205 <= 1
 0 <= x206 <= 1
 0 <= x207 <= 1
 0 <= x208 <= 1
 0 <= x209 <= 1
 0 <= x210 <= 1
 0 <= x211 <= 1
 0 <= x212 <= 1
 0 <= x213 <= 1
 0 <= x214 <= 1
 0 <= x215 <= 1
 0 <= x216 <= 1
 0 <= x217 <= 1
 0 <= x218 <= 1
 0 <= x219 <= 1
 0 <= x220 <= 1
 0 <= x221 <= 1
 0 <= x222 <= 1
 0 <= x223 <= 1
 0 <= x224 <= 1
 0 <= x225 <= 1
 0 <= x226 <= 1
 0 <= x227 <= 1
 0 <= x228 <= 1
 0 <= x229 <= 1
 0 <= x230 <= 1
 0 <= x231 <= 1
 0 <= x232 <= 1
 0 <= x233 <= 1
 0 <= x234 <= 1
 0 <= x235 <= 1
 0 <= x236 <= 1
 0 <= x237 <= 1
 0 <= x238 <= 1
 0 <= x239 <= 1
 0 <= x240 <= 1
 0 <= x241 <= 1
 0 <= x242 <= 1
 0 <= x243 <= 1
 0 <= x244 <= 1
 0 <= x245 <= 1
 0 <= x246 <= 1
 0 <= x247 <= 1
 0 <= x248 <= 1
 0 <= x249 <= 1
 0 <= x250 <= 1
 0 <= x251 <= 1
 0 <= x252 <= 1
 0 <= x253 <= 1
 0 <= x254 <= 1
 0 <= x255 <= 1
 0 <= x256 <= 1
 0 <= x257 <= 1
 0 <= x258 <= 1
 0 <= x259 <= 1
 0 <= x260 <= 1
 0 <= x261 <= 1
 0 <= x262 <= 1
 0 <= x263 <= 1
 0 <= x264 <= 1
 0 <= x265 <= 1
 0 <= x266 <= 1
 0 <= x267 <= 1
 0 <= x268 <= 1
 0 <= x269 <= 1
 0 <= x270 <= 1
 0 <= x271 <= 1
 0 <= x272 <= 1
 0 <= x273 <= 1
 0 <= x274 <= 1
 0 <= x275 <= 1
 0 <= x276 <= 1
 0 <= x277 <= 1
 0 <= x278 <= 1
 0 <= x279 <= 1
 0 <= x280 <= 1
 0 <= x281 <= 1
 0 <= x282 <= 1
 0 <= x283 <= 1
 0 <= x284 <= 1
 0 <= x285 <= 1
 0 <= x286 <= 1
 0 <= x287 <= 1
 0 <= x288 <= 1
 0 <= x289 <= 1
 0 <= x290 <= 1
 0 <= x291 <= 1
 0 <= x292 <= 1
 0 <= x293 <= 1
 0 <= x294 <= 1
 0 <= x295 <= 1
 0 <= x296 <= 1
 0 <= x297 <= 1
 0 <= x298 <= 1
 0 <= x299 <= 1
 0 <= x300 <= 1
 0 <= x301 <= 1
 0 <= x302 <= 1
 0 <= x303 <= 1
 0 <= x304 <= 1
 0 <= x305 <= 1
 0 <= x306 <= 1
 0 <= x307 <= 1
 0 <= x308 <= 1
 0 <= x309 <= 1
 0 <= x310 <= 1
 0 <= x311 <= 1
 0 <= x312 <= 1
 0 <= x313 <= 1
 0 <= x314 <= 1
 0 <= x315 <= 1
 0 <= x316 <= 1
 0 <= x317 <= 1
 0 <= x318 <= 1
 0 <= x319 <= 1
 0 <= x320 <= 1
 0 <= x321 <= 1
 0 <= x322 <= 1
 0 <= x323 <= 1
 0 <= x324 <= 1
 0 <= x325 <= 1
 0 <= x326 <= 1
 0 <= x327 <= 1
 0 <= x328 <= 1
 0 <= x329 <= 1
 0 <= x330 <= 1
 0 <= x331 <= 1
 0 <= x332 <= 1
 0 <= x333 <= 1
 0 <= x334 <= 1
 0 <= x335 <= 1
 0 <= x336 <= 1
 0 <= x337 <= 1
 0 <= x338 <= 1
 0 <= x339 <= 1
 0 <= x340 <= 1
 0 <= x341 <= 1
 0 <= x342 <= 1
 0 <= x343 <= 1
 0 <= x344 <= 1
 0 <= x345 <= 1
 0 <= x346 <= 1
 0 <= x347 <= 1
 0 <= x348 <= 1
 0 <= x349 <= 1
 0 <= x350 <= 1
 0 <= x351 <= 1
 0 <= x352 <= 1
 0 <= x353 <= 1
 0 <= x354 <= 1
 0 <= x355 <= 1
 0 <= x356 <= 1
 0 <= x357 <= 1
 0 <= x358 <= 1
 0 <= x359 <= 1
 0 <= x360 <= 1
 0 <= x361 <= 1
 0 <= x362 <= 1
 0 <= x363 <= 1
 0 <= x364 <= 1
 0 <= x365 <= 1
 0 <= x366 <= 1
 0 <= x367 <= 1
 0 <= x368 <= 1
 0 <= x369 <= 1
 0 <= x370 <= 1
 0 <= x371 <= 1
 0 <= x372 <= 1
 0 <= x373 <= 1
 0 <= x374 <= 1
 0 <= x375 <= 1
 0 <= x376 <= 1
 0 <= x377 <= 1
 0 <= x378 <= 1
 0 <= x379 <= 1
 0 <= x380 <= 1
 0 <= x381 <= 1
 0 <= x382 <= 1
 0 <= x383 <= 1
 0 <= x384 <= 1
 0 <= x385 <= 1
 0 <= x386 <= 1
 0 <= x387 <= 1
 0 <= x388 <= 1
 0 <= x389 <= 1
 0 <= x390 <= 1
 0 <= x391 <= 1
 0 <= x392 <= 1
 0 <= x393 <= 1
 0 <= x394 <= 1
 0 <= x395 <= 1
 0 <= x396 <= 1
 0 <= x397 <= 1
 0 <= x398 <= 1
 0 <= x399 <= 1
 0 <= x400 <= 1
 0 <= x401 <= 1
 0 <= x402 <= 1
 0 <= x403 <= 1
 0 <= x404 <= 1
 0 <= x405 <= 1
 0 <= x406 <= 1
 0 <= x407 <= 1
 0 <= x408 <= 1
 0 <= x409 <= 1
 0 <= x410 <= 1
 0 <= x411 <= 1
 0 <= x412 <= 1
 0 <= x413 <= 1
 0 <= x414 <= 1
 0 <= x415 <= 1
 0 <= x416 <= 1
 0 <= x417 <= 1
 0 <= x418 <= 1
 0 <= x419 <= 1
 0 <= x420 <= 1
 0 <= x421 <= 1
 0 <= x422 <= 1
 0 <= x423 <= 1
 0 <= x424 <= 1
 0 <= x425 <= 1
 0 <= x426 <= 1
 0 <= x427 <= 1
 0 <= x428 <= 1
 0 <= x429 <= 1
 0 <= x430 <= 1
 0 <= x431 <= 1
 0 <= x432 <= 1
 0 <= x433 <= 1
 0 <= x434 <= 1
 0 <= x435 <= 1
 0 <= x436 <= 1
 0 <= x437 <= 1
 0 <= x438 <= 1
 0 <= x439 <= 1
 0 <= x440 <= 1
 0 <= x441 <= 1
 0 <= x442 <= 1
 0 <= x443 <= 1
 0 <= x444 <= 1
 0 <= x445 <= 1
 0 <= x446 <= 1
 0 <= x447 <= 1
 0 <= x448 <= 1
 0 <= x449 <= 1
 0 <= x450 <= 1
 0 <= x451 <= 1
 0 <= x452 <= 1
 0 <= x453 <= 1
 0 <= x454 <= 1
 0 <= x455 <= 1
 0 <= x456 <= 1
 0 <= x457 <= 1
 0 <= x458 <= 1
 0 <= x459 <= 1
 0 <= x460 <= 1
 0 <= x461 <= 1
 0 <= x462 <= 1
 0 <= x463 <= 1
 0 <= x464 <= 1
 0 <= x465 <= 1
 0 <= x466 <= 1
 0 <= x467 <= 1
 0 <= x468 <= 1
 0 <= x469 <= 1
 0 <= x470 <= 1
 0 <= x471 <= 1
 0 <= x472 <= 1
 0 <= x473 <= 1
 0 <= x474 <= 1
 0 <= x475 <= 1
 0 <= x476 <= 1
 0 <= x477 <= 1
 0 <= x478 <= 1
 0 <= x479 <= 1
 0 <= x480 <= 1
 0 <= x481 <= 1
 0 <= x482 <= 1
 0 <= x483 <= 1
 0 <= x484 <= 1
 0 <= x485 <= 1
 0 <= x486 <= 1
 0 <= x487 <= 1
 0 <= x488 <= 1
 0 <= x489 <= 1
 0 <= x490 <= 1
 0 <= x491 <= 1
 0 <= x492 <= 1
 0 <= x493 <= 1
 0 <= x494 <= 1
 0 <= x495 <= 1
 0 <= x496 <= 1
 0 <= x497 <= 1
 0 <= x498 <= 1
 0 <= x499 <= 1
 0 <= x500 <= 1
 0 <= x501 <= 1
 0 <= x502 <= 1
 0 <= x503 <= 1
 0 <= x504 <= 1
 0 <= x505 <= 1
 0 <= x506 <= 1
 0 <= x507 <= 1
 0 <= x508 <= 1
 0 <= x509 <= 1
 0 <= x510 <= 1
 0 <= x511 <= 1
 0 <= x512 <= 1
 0 <= x513 <= 1
 0 <= x514 <= 1
 0 <= x515 <= 1
 0 <= x516 <= 1
 0 <= x517 <= 1
 0 <= x518 <= 1
 0 <= x519 <= 1
 0 <= x520 <= 1
 0 <= x521 <= 1
 0 <= x522 <= 1
 0 <= x523 <= 1
 0 <= x524 <= 1
 0 <= x525 <= 1
 0 <= x526 <= 1
 0 <= x527 <= 1
 0 <= x528 <= 1
 0 <= x529 <= 1
 0 <= x530 <= 1
 0 <= x531 <= 1
 0 <= x532 <= 1
 0 <= x533 <= 1
 0 <= x534 <= 1
 0 <= x535 <= 1
 0 <= x536 <= 1
 0 <= x537 <= 1
 0 <= x538 <= 1
 0 <= x539 <= 1
 0 <= x540 <= 1
 0 <= x541 <= 1
 0 <= x542 <= 1
 0 <= x543 <= 1
 0 <= x544 <= 1
 0 <= x545 <= 1
 0 <= x546 <= 1
 0 <= x547 <= 1
 0 <= x548 <= 1
 0 <= x549 <= 1
 0 <= x550 <= 1
Binaries
 x501  x502  x503  x504  x505  x506  x507  x508  x509  x510  x511  x512  x513 
 x514  x515  x516  x517  x518  x519  x520  x521  x522  x523  x524  x525  x526 
 x527  x528  x529  x530  x531  x532  x533  x534  x535  x536  x537  x538  x539 
 x540  x541  x542  x543  x544  x545  x546  x547  x548  x549  x550 
End
